words_hard_train/4967.qaiger
aag 36 16 0 1 20
2
4
8
10
14
16
22
24
28
30
36
38
42
44
56
58
72
6 3 5
12 9 11
18 15 17
20 12 18
26 23 25
32 29 31
34 26 32
40 37 39
46 43 45
48 40 46
50 34 48
52 20 50
54 7 52
60 57 59
62 54 60
64 60 18
66 64 50
68 67 6
70 68 53
72 63 71
i0 1 x2[7]
i1 2 y2[0]
i2 1 x2[0]
i3 2 y2[7]
i4 1 x2[5]
i5 2 y2[2]
i6 2 y2[5]
i7 2 y2[1]
i8 2 y2[4]
i9 2 y2[3]
i10 1 x2[3]
i11 1 x2[4]
i12 1 x2[2]
i13 1 x2[6]
i14 1 x2[1]
i15 2 y2[6]
o0 bv[0]
c
simplified
  >=
    1
    subtract
      or
        reverse
          2 y2
        1 x2
      1
