words_hard_train/4967.qaiger.qdimacs
p cnf 36 61
a 1 4 7 18 19 21 22 28 0
e 2 3 5 6 8 9 10 11 12 13 14 15 16 17 20 23 24 25 26 27 29 30 31 32 33 34 35 36 0
1 2 3 0
-1 -3 0
-2 -3 0
4 5 6 0
-4 -6 0
-5 -6 0
7 8 9 0
-7 -9 0
-8 -9 0
-6 -9 10 0
6 -10 0
9 -10 0
11 12 13 0
-11 -13 0
-12 -13 0
14 15 16 0
-14 -16 0
-15 -16 0
-13 -16 17 0
13 -17 0
16 -17 0
18 19 20 0
-18 -20 0
-19 -20 0
21 22 23 0
-21 -23 0
-22 -23 0
-20 -23 24 0
20 -24 0
23 -24 0
-17 -24 25 0
17 -25 0
24 -25 0
-10 -25 26 0
10 -26 0
25 -26 0
3 -26 27 0
-3 -27 0
26 -27 0
28 29 30 0
-28 -30 0
-29 -30 0
-27 -30 31 0
27 -31 0
30 -31 0
-30 -9 32 0
30 -32 0
9 -32 0
-32 -25 33 0
32 -33 0
25 -33 0
33 -3 34 0
-33 -34 0
3 -34 0
-34 26 35 0
34 -35 0
-26 -35 0
31 35 36 0
-31 -36 0
-35 -36 0
36 0
